\ Model mkp
\ LP format - for model browsing. Use MPS format to capture full model detail.
Maximize
  16 x1 + 19 x2 + 23 x3 + 28 x4
Subject To
 R0: 2 x1 + 3 x2 + 4 x3 + 5 x4 <= 7
 R1: 3000 x1 + 3500 x2 + 5100 x3 + 7200 x4 <= 10000
Bounds
Binaries
 x1 x2 x3 x4
End
